p tw 144 1750
1 85
1 106
1 122
1 138
1 11
1 27
1 43
1 112
1 59
1 75
1 91
1 97
1 109
1 121
1 133
1 4
1 16
1 28
1 40
1 2
1 25
1 61
1 73
1 104
1 118
1 132
1 6
1 20
1 34
1 49
1 14
1 63
1 77
2 102
2 117
2 99
2 113
2 126
2 139
2 10
2 23
2 37
2 50
2 14
2 25
2 61
2 100
2 115
2 129
2 143
2 17
2 31
2 45
2 123
2 59
2 74
2 88
57 53
57 69
57 84
57 47
57 64
57 77
57 68
57 79
57 90
57 101
57 112
57 123
57 134
57 3
57 52
57 66
57 81
68 54
68 70
68 86
68 52
68 65
68 78
68 79
68 90
68 101
68 112
68 123
68 134
68 3
68 53
68 67
68 82
79 55
79 71
79 87
79 53
79 66
79 80
79 90
79 101
79 112
79 123
79 134
79 3
79 54
79 69
79 83
90 56
90 72
90 88
90 54
90 67
90 81
90 101
90 112
90 123
90 134
90 3
90 55
90 70
90 84
101 58
101 74
101 89
101 55
101 69
101 82
101 112
101 123
101 134
101 3
101 56
101 71
101 86
112 59
112 75
112 91
112 56
112 70
112 83
112 123
112 134
112 3
112 58
112 72
112 87
123 60
123 76
123 58
123 71
123 84
123 134
123 3
123 59
123 74
123 88
134 62
134 59
134 72
134 86
134 3
134 60
134 75
134 89
3 60
3 74
3 87
3 62
3 76
3 91
14 64
14 80
14 36
14 47
14 52
14 53
14 54
14 55
14 56
14 58
14 59
14 60
14 62
14 63
14 77
25 103
25 100
25 114
25 127
25 140
25 11
25 24
25 38
25 51
25 36
25 63
25 61
25 102
25 116
25 130
25 144
25 18
25 32
25 46
25 60
25 75
25 89
36 65
36 81
36 63
36 47
36 52
36 53
36 54
36 55
36 56
36 58
36 59
36 60
36 62
36 64
36 78
47 66
47 82
47 64
47 77
47 52
47 53
47 54
47 55
47 56
47 58
47 59
47 60
47 62
47 65
47 80
52 67
52 83
52 65
52 78
52 53
52 54
52 55
52 56
52 58
52 59
52 60
52 62
52 66
52 81
53 69
53 84
53 66
53 80
53 54
53 55
53 56
53 58
53 59
53 60
53 62
53 67
53 82
54 70
54 86
54 67
54 81
54 55
54 56
54 58
54 59
54 60
54 62
54 69
54 83
55 71
55 87
55 69
55 82
55 56
55 58
55 59
55 60
55 62
55 70
55 84
56 72
56 88
56 70
56 83
56 58
56 59
56 60
56 62
56 71
56 86
58 74
58 89
58 71
58 84
58 59
58 60
58 62
58 72
58 87
59 75
59 91
59 72
59 86
59 60
59 62
59 74
59 88
60 76
60 74
60 87
60 62
60 75
60 89
61 102
61 115
61 128
61 141
61 12
61 26
61 39
61 64
61 77
61 103
61 117
61 131
61 5
61 19
61 33
61 48
61 62
61 76
61 91
62 75
62 88
62 76
62 91
63 78
63 64
63 65
63 66
63 67
63 69
63 70
63 71
63 72
63 74
63 75
63 76
63 77
64 80
64 77
64 65
64 66
64 67
64 69
64 70
64 71
64 72
64 74
64 75
64 76
64 78
65 81
65 78
65 66
65 67
65 69
65 70
65 71
65 72
65 74
65 75
65 76
65 80
66 82
66 80
66 67
66 69
66 70
66 71
66 72
66 74
66 75
66 76
66 81
67 83
67 81
67 69
67 70
67 71
67 72
67 74
67 75
67 76
67 82
69 84
69 82
69 70
69 71
69 72
69 74
69 75
69 76
69 83
70 86
70 83
70 71
70 72
70 74
70 75
70 76
70 84
71 87
71 84
71 72
71 74
71 75
71 76
71 86
72 88
72 86
72 74
72 75
72 76
72 87
73 105
73 120
73 137
73 10
73 26
73 42
73 74
73 89
73 85
73 92
73 93
73 94
73 95
73 96
73 98
73 99
73 100
73 102
73 103
73 104
73 118
73 132
73 6
73 20
73 34
73 49
73 77
74 89
74 87
74 75
74 76
74 88
75 91
75 88
75 76
75 89
76 89
76 91
77 78
77 80
77 81
77 82
77 83
77 84
77 86
77 87
77 88
77 89
77 91
78 80
78 81
78 82
78 83
78 84
78 86
78 87
78 88
78 89
78 91
80 81
80 82
80 83
80 84
80 86
80 87
80 88
80 89
80 91
81 82
81 83
81 84
81 86
81 87
81 88
81 89
81 91
82 83
82 84
82 86
82 87
82 88
82 89
82 91
83 84
83 86
83 87
83 88
83 89
83 91
84 86
84 87
84 88
84 89
84 91
85 106
85 122
85 138
85 11
85 27
85 43
85 91
85 104
85 92
85 93
85 94
85 95
85 96
85 98
85 99
85 100
85 102
85 103
85 105
85 119
85 135
85 7
85 21
85 35
85 50
86 87
86 88
86 89
86 91
87 88
87 89
87 91
88 89
88 91
89 91
92 107
92 124
92 139
92 12
92 29
92 44
92 105
92 118
92 93
92 94
92 95
92 96
92 98
92 99
92 100
92 102
92 103
92 106
92 120
92 136
92 8
92 22
92 37
92 51
93 108
93 125
93 140
93 13
93 30
93 45
93 106
93 119
93 132
93 94
93 95
93 96
93 98
93 99
93 100
93 102
93 103
93 107
93 122
93 137
93 9
93 23
93 38
94 110
94 126
94 141
94 15
94 31
94 46
94 107
94 120
94 135
94 6
94 95
94 96
94 98
94 99
94 100
94 102
94 103
94 108
94 124
94 138
94 10
94 24
94 39
95 111
95 127
95 142
95 17
95 32
95 48
95 108
95 122
95 136
95 7
95 20
95 96
95 98
95 99
95 100
95 102
95 103
95 110
95 125
95 139
95 11
95 26
95 41
96 113
96 128
96 143
96 18
96 33
96 110
96 124
96 137
96 8
96 21
96 34
96 98
96 99
96 100
96 102
96 103
96 111
96 126
96 140
96 12
96 27
96 42
97 107
97 124
97 139
97 12
97 29
97 44
97 109
97 121
97 133
97 4
97 16
97 28
97 40
97 105
97 119
97 135
97 7
97 21
97 35
97 50
98 114
98 129
98 144
98 19
98 111
98 125
98 138
98 9
98 22
98 35
98 49
98 99
98 100
98 102
98 103
98 113
98 127
98 141
98 13
98 29
98 43
99 115
99 130
99 5
99 113
99 126
99 139
99 10
99 23
99 37
99 50
99 100
99 102
99 103
99 114
99 128
99 142
99 15
99 30
99 44
100 116
100 131
100 114
100 127
100 140
100 11
100 24
100 38
100 51
100 102
100 103
100 115
100 129
100 143
100 17
100 31
100 45
102 117
102 115
102 128
102 141
102 12
102 26
102 39
102 103
102 116
102 130
102 144
102 18
102 32
102 46
103 116
103 129
103 142
103 13
103 27
103 41
103 117
103 131
103 5
103 19
103 33
103 48
104 119
104 136
104 9
104 24
104 41
104 105
104 106
104 107
104 108
104 110
104 111
104 113
104 114
104 115
104 116
104 117
104 118
104 132
104 6
104 20
104 34
104 49
105 120
105 137
105 10
105 26
105 42
105 118
105 106
105 107
105 108
105 110
105 111
105 113
105 114
105 115
105 116
105 117
105 119
105 135
105 7
105 21
105 35
105 50
106 122
106 138
106 11
106 27
106 43
106 119
106 132
106 107
106 108
106 110
106 111
106 113
106 114
106 115
106 116
106 117
106 120
106 136
106 8
106 22
106 37
106 51
107 124
107 139
107 12
107 29
107 44
107 120
107 135
107 6
107 108
107 110
107 111
107 113
107 114
107 115
107 116
107 117
107 122
107 137
107 9
107 23
107 38
108 125
108 140
108 13
108 30
108 45
108 122
108 136
108 7
108 20
108 110
108 111
108 113
108 114
108 115
108 116
108 117
108 124
108 138
108 10
108 24
108 39
109 125
109 140
109 13
109 30
109 45
109 121
109 133
109 4
109 16
109 28
109 40
109 120
109 136
109 8
109 22
109 37
109 51
110 126
110 141
110 15
110 31
110 46
110 124
110 137
110 8
110 21
110 34
110 111
110 113
110 114
110 115
110 116
110 117
110 125
110 139
110 11
110 26
110 41
111 127
111 142
111 17
111 32
111 48
111 125
111 138
111 9
111 22
111 35
111 49
111 113
111 114
111 115
111 116
111 117
111 126
111 140
111 12
111 27
111 42
113 128
113 143
113 18
113 33
113 126
113 139
113 10
113 23
113 37
113 50
113 114
113 115
113 116
113 117
113 127
113 141
113 13
113 29
113 43
114 129
114 144
114 19
114 127
114 140
114 11
114 24
114 38
114 51
114 115
114 116
114 117
114 128
114 142
114 15
114 30
114 44
115 130
115 5
115 128
115 141
115 12
115 26
115 39
115 116
115 117
115 129
115 143
115 17
115 31
115 45
116 131
116 129
116 142
116 13
116 27
116 41
116 117
116 130
116 144
116 18
116 32
116 46
117 130
117 143
117 15
117 29
117 42
117 131
117 5
117 19
117 33
117 48
118 135
118 8
118 23
118 39
118 119
118 120
118 122
118 124
118 125
118 126
118 127
118 128
118 129
118 130
118 131
118 132
118 6
118 20
118 34
118 49
119 136
119 9
119 24
119 41
119 132
119 120
119 122
119 124
119 125
119 126
119 127
119 128
119 129
119 130
119 131
119 135
119 7
119 21
119 35
119 50
120 137
120 10
120 26
120 42
120 135
120 6
120 122
120 124
120 125
120 126
120 127
120 128
120 129
120 130
120 131
120 136
120 8
120 22
120 37
120 51
121 126
121 141
121 15
121 31
121 46
121 133
121 4
121 16
121 28
121 40
121 122
121 137
121 9
121 23
121 38
122 138
122 11
122 27
122 43
122 136
122 7
122 20
122 124
122 125
122 126
122 127
122 128
122 129
122 130
122 131
122 137
122 9
122 23
122 38
124 139
124 12
124 29
124 44
124 137
124 8
124 21
124 34
124 125
124 126
124 127
124 128
124 129
124 130
124 131
124 138
124 10
124 24
124 39
125 140
125 13
125 30
125 45
125 138
125 9
125 22
125 35
125 49
125 126
125 127
125 128
125 129
125 130
125 131
125 139
125 11
125 26
125 41
126 141
126 15
126 31
126 46
126 139
126 10
126 23
126 37
126 50
126 127
126 128
126 129
126 130
126 131
126 140
126 12
126 27
126 42
127 142
127 17
127 32
127 48
127 140
127 11
127 24
127 38
127 51
127 128
127 129
127 130
127 131
127 141
127 13
127 29
127 43
128 143
128 18
128 33
128 141
128 12
128 26
128 39
128 129
128 130
128 131
128 142
128 15
128 30
128 44
129 144
129 19
129 142
129 13
129 27
129 41
129 130
129 131
129 143
129 17
129 31
129 45
130 5
130 143
130 15
130 29
130 42
130 131
130 144
130 18
130 32
130 46
131 144
131 17
131 30
131 43
131 5
131 19
131 33
131 48
132 7
132 22
132 38
132 135
132 136
132 137
132 138
132 139
132 140
132 141
132 142
132 143
132 144
132 5
132 6
132 20
132 34
132 49
133 142
133 17
133 32
133 48
133 4
133 16
133 28
133 40
133 138
133 10
133 24
133 39
135 8
135 23
135 39
135 6
135 136
135 137
135 138
135 139
135 140
135 141
135 142
135 143
135 144
135 5
135 7
135 21
135 35
135 50
136 9
136 24
136 41
136 7
136 20
136 137
136 138
136 139
136 140
136 141
136 142
136 143
136 144
136 5
136 8
136 22
136 37
136 51
137 10
137 26
137 42
137 8
137 21
137 34
137 138
137 139
137 140
137 141
137 142
137 143
137 144
137 5
137 9
137 23
137 38
138 11
138 27
138 43
138 9
138 22
138 35
138 49
138 139
138 140
138 141
138 142
138 143
138 144
138 5
138 10
138 24
138 39
139 12
139 29
139 44
139 10
139 23
139 37
139 50
139 140
139 141
139 142
139 143
139 144
139 5
139 11
139 26
139 41
140 13
140 30
140 45
140 11
140 24
140 38
140 51
140 141
140 142
140 143
140 144
140 5
140 12
140 27
140 42
141 15
141 31
141 46
141 12
141 26
141 39
141 142
141 143
141 144
141 5
141 13
141 29
141 43
142 17
142 32
142 48
142 13
142 27
142 41
142 143
142 144
142 5
142 15
142 30
142 44
143 18
143 33
143 15
143 29
143 42
143 144
143 5
143 17
143 31
143 45
144 19
144 17
144 30
144 43
144 5
144 18
144 32
144 46
4 18
4 33
4 6
4 16
4 28
4 40
4 11
4 26
4 41
5 18
5 31
5 44
5 19
5 33
5 48
6 21
6 37
6 7
6 8
6 9
6 10
6 11
6 12
6 13
6 15
6 17
6 18
6 19
6 20
6 34
6 49
7 22
7 38
7 20
7 8
7 9
7 10
7 11
7 12
7 13
7 15
7 17
7 18
7 19
7 21
7 35
7 50
8 23
8 39
8 21
8 34
8 9
8 10
8 11
8 12
8 13
8 15
8 17
8 18
8 19
8 22
8 37
8 51
9 24
9 41
9 22
9 35
9 49
9 10
9 11
9 12
9 13
9 15
9 17
9 18
9 19
9 23
9 38
10 26
10 42
10 23
10 37
10 50
10 11
10 12
10 13
10 15
10 17
10 18
10 19
10 24
10 39
11 27
11 43
11 24
11 38
11 51
11 12
11 13
11 15
11 17
11 18
11 19
11 26
11 41
12 29
12 44
12 26
12 39
12 13
12 15
12 17
12 18
12 19
12 27
12 42
13 30
13 45
13 27
13 41
13 15
13 17
13 18
13 19
13 29
13 43
15 31
15 46
15 29
15 42
15 17
15 18
15 19
15 30
15 44
16 19
16 20
16 28
16 40
16 27
16 42
17 32
17 48
17 30
17 43
17 18
17 19
17 31
17 45
18 33
18 31
18 44
18 19
18 32
18 46
19 32
19 45
19 33
19 48
20 35
20 51
20 21
20 22
20 23
20 24
20 26
20 27
20 29
20 30
20 31
20 32
20 33
20 34
20 49
21 37
21 34
21 22
21 23
21 24
21 26
21 27
21 29
21 30
21 31
21 32
21 33
21 35
21 50
22 38
22 35
22 49
22 23
22 24
22 26
22 27
22 29
22 30
22 31
22 32
22 33
22 37
22 51
23 39
23 37
23 50
23 24
23 26
23 27
23 29
23 30
23 31
23 32
23 33
23 38
24 41
24 38
24 51
24 26
24 27
24 29
24 30
24 31
24 32
24 33
24 39
26 42
26 39
26 27
26 29
26 30
26 31
26 32
26 33
26 41
27 43
27 41
27 29
27 30
27 31
27 32
27 33
27 42
28 34
28 40
28 29
28 43
29 44
29 42
29 30
29 31
29 32
29 33
29 43
30 45
30 43
30 31
30 32
30 33
30 44
31 46
31 44
31 32
31 33
31 45
32 48
32 45
32 33
32 46
33 46
33 48
34 50
34 35
34 37
34 38
34 39
34 41
34 42
34 43
34 44
34 45
34 46
34 48
34 49
35 51
35 49
35 37
35 38
35 39
35 41
35 42
35 43
35 44
35 45
35 46
35 48
35 50
37 50
37 38
37 39
37 41
37 42
37 43
37 44
37 45
37 46
37 48
37 51
38 51
38 39
38 41
38 42
38 43
38 44
38 45
38 46
38 48
39 41
39 42
39 43
39 44
39 45
39 46
39 48
40 49
40 44
41 42
41 43
41 44
41 45
41 46
41 48
42 43
42 44
42 45
42 46
42 48
43 44
43 45
43 46
43 48
44 45
44 46
44 48
45 46
45 48
46 48
49 50
49 51
50 51
